c BabySAT DPLL SAT Solver
c
c Copyright (c) 2026, Benjamin Deutsch
c Version 0.0.4 3f70528ad16f8c5ae9a5b9cc5ac28edf924451f6
c Compiled with 'g++ -Wall -std=c++11 -O3 -DNDEBUG'
c
c reading from 'cnfs/add8.cnf'
c parsed header 'p cnf 149 400'
c
c             decisions             variables
c   seconds              conflicts            remaining
c
c *    0.00           0           0       148  99%
c d    0.00           1           0       148  99%
c d    0.00           2           0       148  99%
c d    0.00           4           0       148  99%
c d    0.00           8           0       148  99%
c d    0.00          16           0       148  99%
c d    0.00          32          19       148  99%
c d    0.00          64          51       148  99%
c d    0.00         128         117       148  99%
c d    0.00         256         243       148  99%
c d    0.00         512         500       148  99%
c d    0.01        1024        1011       148  99%
c d    0.01        2048        2036       148  99%
c d    0.01        4096        4087       148  99%
c d    0.01        8192        8188       148  99%
c d    0.02       16384       16378       148  99%
c d    0.04       32768       32757       137  92%
c 0    0.04       47203       47204        85  57%
c
s UNSATISFIABLE
c
c conflicts:                 47204   1079763.02 per second
c decisions:                 47203   1079740.15 per second
c propagations:                  0         0.00 million per second
c
c process-time:               0.04 seconds
c
c exit code 20
